Geometry = GenFormat {
60 C
C
1   1   3.4512664980E+00   6.8500000000E-01   0.0000000000E+00
2   1   3.4512664980E+00  -6.8500000000E-01   0.0000000000E+00
3   1  -3.4512664980E+00   6.8500000000E-01   0.0000000000E+00
4   1  -3.4512664980E+00  -6.8500000000E-01   0.0000000000E+00
5   1   6.8500000000E-01   0.0000000000E+00   3.4512664980E+00
6   1  -6.8500000000E-01   0.0000000000E+00   3.4512664980E+00
7   1   6.8500000000E-01   0.0000000000E+00  -3.4512664980E+00
8   1  -6.8500000000E-01   0.0000000000E+00  -3.4512664980E+00
9   1   0.0000000000E+00   3.4512664980E+00   6.8500000000E-01
10   1   0.0000000000E+00   3.4512664980E+00  -6.8500000000E-01
11   1   0.0000000000E+00  -3.4512664980E+00   6.8500000000E-01
12   1   0.0000000000E+00  -3.4512664980E+00  -6.8500000000E-01
13   1   3.0038098900E+00   1.4090000000E+00   1.1714566080E+00
14   1   3.0038098900E+00   1.4090000000E+00  -1.1714566080E+00
15   1   3.0038098900E+00  -1.4090000000E+00   1.1714566080E+00
16   1   3.0038098900E+00  -1.4090000000E+00  -1.1714566080E+00
17   1  -3.0038098900E+00   1.4090000000E+00   1.1714566080E+00
18   1  -3.0038098900E+00   1.4090000000E+00  -1.1714566080E+00
19   1  -3.0038098900E+00  -1.4090000000E+00   1.1714566080E+00
20   1  -3.0038098900E+00  -1.4090000000E+00  -1.1714566080E+00
21   1   1.4090000000E+00   1.1714566080E+00   3.0038098900E+00
22   1   1.4090000000E+00  -1.1714566080E+00   3.0038098900E+00
23   1  -1.4090000000E+00   1.1714566080E+00   3.0038098900E+00
24   1  -1.4090000000E+00  -1.1714566080E+00   3.0038098900E+00
25   1   1.4090000000E+00   1.1714566080E+00  -3.0038098900E+00
26   1   1.4090000000E+00  -1.1714566080E+00  -3.0038098900E+00
27   1  -1.4090000000E+00   1.1714566080E+00  -3.0038098900E+00
28   1  -1.4090000000E+00  -1.1714566080E+00  -3.0038098900E+00
29   1   1.1714566080E+00   3.0038098900E+00   1.4090000000E+00
30   1  -1.1714566080E+00   3.0038098900E+00   1.4090000000E+00
31   1   1.1714566080E+00   3.0038098900E+00  -1.4090000000E+00
32   1  -1.1714566080E+00   3.0038098900E+00  -1.4090000000E+00
33   1   1.1714566080E+00  -3.0038098900E+00   1.4090000000E+00
34   1  -1.1714566080E+00  -3.0038098900E+00   1.4090000000E+00
35   1   1.1714566080E+00  -3.0038098900E+00  -1.4090000000E+00
36   1  -1.1714566080E+00  -3.0038098900E+00  -1.4090000000E+00
37   1   2.5804566080E+00   7.2400000000E-01   2.2798098900E+00
38   1   2.5804566080E+00   7.2400000000E-01  -2.2798098900E+00
39   1   2.5804566080E+00  -7.2400000000E-01   2.2798098900E+00
40   1   2.5804566080E+00  -7.2400000000E-01  -2.2798098900E+00
41   1  -2.5804566080E+00   7.2400000000E-01   2.2798098900E+00
42   1  -2.5804566080E+00   7.2400000000E-01  -2.2798098900E+00
43   1  -2.5804566080E+00  -7.2400000000E-01   2.2798098900E+00
44   1  -2.5804566080E+00  -7.2400000000E-01  -2.2798098900E+00
45   1   7.2400000000E-01   2.2798098900E+00   2.5804566080E+00
46   1   7.2400000000E-01  -2.2798098900E+00   2.5804566080E+00
47   1  -7.2400000000E-01   2.2798098900E+00   2.5804566080E+00
48   1  -7.2400000000E-01  -2.2798098900E+00   2.5804566080E+00
49   1   7.2400000000E-01   2.2798098900E+00  -2.5804566080E+00
50   1   7.2400000000E-01  -2.2798098900E+00  -2.5804566080E+00
51   1  -7.2400000000E-01   2.2798098900E+00  -2.5804566080E+00
52   1  -7.2400000000E-01  -2.2798098900E+00  -2.5804566080E+00
53   1   2.2798098900E+00   2.5804566080E+00   7.2400000000E-01
54   1  -2.2798098900E+00   2.5804566080E+00   7.2400000000E-01
55   1   2.2798098900E+00   2.5804566080E+00  -7.2400000000E-01
56   1  -2.2798098900E+00   2.5804566080E+00  -7.2400000000E-01
57   1   2.2798098900E+00  -2.5804566080E+00   7.2400000000E-01
58   1  -2.2798098900E+00  -2.5804566080E+00   7.2400000000E-01
59   1   2.2798098900E+00  -2.5804566080E+00  -7.2400000000E-01
60   1  -2.2798098900E+00  -2.5804566080E+00  -7.2400000000E-01
}
Driver = ConjugateGradient {
  MovedAtoms = 1:-1
  MaxForceComponent = 1E-14
  MaxSteps = 1000
  OutputPrefix = "geom.out"
  LatticeOpt = No
  MaxAtomStep = 0.20000000000000001
  StepSize = 100.00000000000000
  AppendGeometries = No
  ConvergentForcesOnly = Yes
  Constraints = {}
}
Hamiltonian = DFTB {
  MaxAngularMomentum = {
    C = "p"
  }
  SlaterKosterFiles = Type2FileNames {
    Separator = "-"
    Suffix = ".skf"
    Prefix = ""
    LowerCaseTypeName = No
  }
  SCC = Yes
  MaxSCCIterations = 10
  SCCTolerance = 1.0E-14
  Differentiation = FiniteDiff {
    Delta = 1.0000000000000000E-002
  }
  PolynomialRepulsive = {}
  ShellResolvedSCC = No
  OldSKInterpolation = No
  RangeSeparated = None {}
  ReadInitialCharges = No
  InitialCharges = {}
  HCorrection = None {}
  SpinPolarisation = {}
  ElectricField = {}
  Solver = RelativelyRobust {}
  Charge = 0.0000000000000000
  OnSiteCorrection = {}
  Dispersion = {}
  Solvation = {}
  Electrostatics = GammaFunctional {}
  ThirdOrder = No
  ThirdOrderFull = No
  ForceEvaluation = "Traditional"
  Mixer = Broyden {
    MixingParameter = 0.20000000000000001
    InverseJacobiWeight = 1.0000000000000000E-002
    MinimalWeight = 1.0000000000000000
    MaximalWeight = 100000.00000000000
    WeightFactor = 1.0000000000000000E-002
  }
  Filling = Fermi {
    Temperature = 0.0000000000000000
  }
}
ParserOptions = {
  ParserVersion = 9
  WriteHSDInput = Yes
  StopAfterParsing = No
  IgnoreUnprocessedNodes = No
}
Options = {
  WriteDetailedOut = Yes
  WriteAutotestTag = No
  WriteDetailedXML = No
  WriteResultsTag = No
  RandomSeed = 0
  WriteHS = No
  WriteRealHS = No
  MinimiseMemoryUsage = No
  ShowFoldedCoords = No
  TimingVerbosity = 1
  WriteChargesAsText = No
}
Reks = None {}
Analysis = {
  ProjectStates = {}
  WriteEigenvectors = No
  WriteBandOut = Yes
  MullikenAnalysis = Yes
  WriteNetCharges = No
  AtomResolvedEnergies = No
  CalculateForces = No
  EigenvectorsAsText = No
}
ExcitedState = {}
